Ordonnancement/plne/source/petit_instance/3job/3job_2.dat
data;
param nombreJob := 3;
param nombreRessource := 3;
param duree := 1 3 2 3 3 4;
param capaciteRessource := 1 5 2 11 3 20;
param besoinRessource : 1 2 3 :=
                    1   4 3 10
                    2   4 2 3
                    3   1 4 8;
end;

